c WARNING: for repeatability, setting FPU to use double precision
d VARIABLES            202236       
d CONSTRAINTS          919410       
c ============================[ Problem Statistics ]=============================
c |                                                                             |
c |  Number of variables:        202236                                         |
c |  Number of clauses:          919410                                         |
c |  Parse time:                   0.14 s                                       |
c |                                                                             |
c ============================[ Search Statistics ]==============================
c | Conflicts |          ORIGINAL         |          LEARNT          | Progress |
c |           |    Vars  Clauses Literals |    Limit  Clauses Lit/Cl |          |
c ===============================================================================
c |       100 |  176964   847530  2049122 |   310761       96     44 | 12.496 % |
c |       250 |  176964   847530  2049122 |   341837      246     69 | 12.496 % |
c |       475 |  176964   847530  2049122 |   376020      471     67 | 12.496 % |
c |       812 |  176964   847045  2047958 |   413622      807    114 | 12.496 % |
c |      1318 |  176964   847045  2047958 |   454985     1313    113 | 12.496 % |
c |      2077 |  176964   847045  2047958 |   500483     2072    123 | 12.496 % |
c |      3216 |  176964   847045  2047958 |   550532     3211    169 | 12.496 % |
c |      4924 |  176964   847045  2047958 |   605585     4919    162 | 12.496 % |
c |      7486 |  176964   847045  2047958 |   666143     7481    173 | 12.496 % |
c |     11330 |  176964   847045  2047958 |   732758    11325    163 | 12.496 % |
c |     17096 |  176964   847045  2047958 |   806034    17091    152 | 12.496 % |
c |     25745 |  176964   847045  2047958 |   886637    25740    143 | 12.496 % |
c |     38719 |  176964   847045  2047958 |   975301    38714    148 | 12.496 % |
c |     58180 |  176964   847045  2047958 |  1072831    58175    150 | 12.496 % |
c |     87372 |  176964   847045  2047958 |  1180114    87367    162 | 12.496 % |
c |    131161 |  176964   847045  2047958 |  1298125   131156    160 | 12.496 % |
c |    196845 |  176964   847045  2047958 |  1427938   196840    161 | 12.496 % |
c |    295371 |  176964   847045  2047958 |  1570732   295366    163 | 12.496 % |
c |    443160 |  176964   847045  2047958 |  1727805   443155    163 | 12.496 % |
c |    664843 |  176964   847045  2047958 |  1900586   664838    179 | 12.496 % |
c |    997368 |  176964   847045  2047958 |  2090644   997363    181 | 12.496 % |
c |   1496156 |  176964   847045  2047958 |  2299709  1496151    226 | 12.496 % |
c ===============================================================================
c restarts              : 3579
c conflicts             : 1833402        (1024 /sec)
c decisions             : 4819027        (0.00 % random) (2692 /sec)
c propagations          : 2790306763     (1558921 /sec)
c conflict literals     : 398623394      (38.02 % deleted)
d RESTARTS             3579
d FAILURES             1833402      
d NODES                4819027      
d BACKTRACKS           4819027      
d PROPAGATIONS         2790306763   
d NOGOODSIZE           217.42 
d MEMORY               2543.00 
d TIME                 1789.9 

s UNKNOWN
